decision_x1=[0,4];
decision_x2=[0,4];
decision_x3=[0,4];
decision_x4=[0,4];
random_y1=[0,4];
random_y2=[0,4];
constraint_x3_x2=[
0,1,6|
0,2,6.2|
0,3,9|
0,4,6.8|
1,0,5.1|
1,2,2.1|
1,3,1.8|
1,4,1.9|
2,0,3|
2,1,8.6|
2,3,0.25|
2,4,9|
3,0,3|
3,1,9.2|
3,2,8.2|
3,4,1.7|
4,0,9.1|
4,1,1.6|
4,2,9|
4,3,8|
];
constraint_x4_x1=[
0,1,9.2|
0,2,5.8|
0,3,0.22|
0,4,0.71|
1,0,4.6|
1,2,7.2|
1,3,8|
1,4,9.2|
2,0,8.9|
2,1,0.015|
2,3,7.8|
2,4,0.36|
3,0,9.6|
3,1,7.7|
3,2,8.2|
3,4,2.9|
4,0,5.4|
4,1,3|
4,2,6.2|
4,3,5.7|
];
constraint_x4_x2=[
0,1,1.7|
0,2,5.1|
0,3,6.1|
0,4,2.9|
1,0,2.9|
1,2,7|
1,3,9.9|
1,4,8|
2,0,3.5|
2,1,2|
2,3,9.9|
2,4,5.7|
3,0,8.4|
3,1,6.4|
3,2,7.2|
3,4,4.2|
4,0,6|
4,1,7.7|
4,2,6.2|
4,3,4.6|
];
constraint_x1_y1=[
0,0,0.74|
0,1,4.8|
0,2,6.5|
0,3,0.48|
0,4,6.1|
1,0,7.3|
1,1,6.2|
1,2,7|
1,3,6.4|
1,4,9.4|
2,0,0.26|
2,1,9.6|
2,2,1.2|
2,3,1.6|
2,4,4.8|
3,0,4|
3,1,4.6|
3,2,4.5|
3,3,9.5|
3,4,3.8|
4,0,9.6|
4,1,2.3|
4,2,2.6|
4,3,9.4|
4,4,1.6|
];
constraint_x2_y2=[
0,0,6.2|
0,1,1.9|
0,2,0.082|
0,3,8|
0,4,5.9|
1,0,4.5|
1,1,1.9|
1,2,4.9|
1,3,8.9|
1,4,2.5|
2,0,9.4|
2,1,3.1|
2,2,4.2|
2,3,5.5|
2,4,4.4|
3,0,8.1|
3,1,0.98|
3,2,3|
3,3,7.1|
3,4,6.2|
4,0,7.6|
4,1,8.1|
4,2,8.1|
4,3,9|
4,4,2.6|
];
initial_distribution_y1=[0.16,0.17,0.27,0.039,0.36];
initial_distribution_y2=[0.046,0.083,0.12,0.39,0.36];
transition_y1=[
0.21,0.24,0.34,0.018,0.2|
0.18,0.31,0.13,0.18,0.2|
0.38,0.32,0.11,0.087,0.1|
0.18,0.17,0.058,0.34,0.25|
0.26,0.25,0.37,0.064,0.055|
];
transition_y2=[
0.27,0.14,0.18,0.27,0.14|
0.13,0.29,0.15,0.24,0.19|
0.054,0.12,0.059,0.32,0.45|
0.015,0.033,0.16,0.28,0.51|
0.041,0.12,0.31,0.2,0.34|
];
